100
120
100
100
97
96
96
95
94
94
94
90
90
90
87
86
86
86
83
83
83
83
83
82
82
82
80
79
79
78
77
77
77
76
76
75
71
71
71
70
70
68
68
67
67
66
66
65
63
63
63
62
61
61
60
60
59
59
59
58
56
55
53
53
53
52
51
49
49
47
45
45
45
45
45
44
42
42
42
41
41
41
41
41
39
39
38
38
38
37
33
33
33
33
32
32
32
31
31
31
31
30
